NAME : gr24.1360.tour
COMMENT : Length = 1360
COMMENT : Found by LKH-3 [Keld Helsgaun] Sun Jan 11 02:08:32 2026
TYPE : TOUR
DIMENSION : 24
TOUR_SECTION
1
12
4
23
9
13
14
20
2
15
19
18
22
17
10
5
21
3
11
7
8
24
6
16
-1
EOF
